unknown
(model
; cardinality of BoundSet is 7
(declare-sort BoundSet 0)
; rep: @uc_BoundSet_0
; rep: @uc_BoundSet_1
; rep: @uc_BoundSet_2
; rep: @uc_BoundSet_3
; rep: @uc_BoundSet_4
; rep: @uc_BoundSet_5
; rep: @uc_BoundSet_6
; cardinality of UnboundSet is 1
(declare-sort UnboundSet 0)
(declare-fun groundTerm_8 () UnboundSet)
(define-fun IsDressedInKilt ((BOUND_VARIABLE_535 BoundSet)) Bool true)
(define-fun HasThrown ((BOUND_VARIABLE_542 BoundSet) (BOUND_VARIABLE_543 BoundSet)) Bool true)
(define-fun IsInKilts ((BOUND_VARIABLE_535 BoundSet)) Bool true)
(define-fun Watches ((BOUND_VARIABLE_542 BoundSet) (BOUND_VARIABLE_543 BoundSet)) Bool false)
)
sat
(model
; cardinality of BoundSet is 1
(declare-sort BoundSet 0)
; rep: @uc_BoundSet_0
; cardinality of UnboundSet is 1
(declare-sort UnboundSet 0)
(declare-fun groundTerm_13 () UnboundSet)
(define-fun IsDressedInKilt ((BOUND_VARIABLE_588 BoundSet)) Bool true)
(define-fun HasThrown ((BOUND_VARIABLE_595 BoundSet) (BOUND_VARIABLE_596 BoundSet)) Bool true)
(define-fun IsInKilts ((BOUND_VARIABLE_588 BoundSet)) Bool true)
(define-fun Watches ((BOUND_VARIABLE_595 BoundSet) (BOUND_VARIABLE_596 BoundSet)) Bool false)
)
